data/lp_files/q3/65_5.lp
\ Model foo
\ LP format - for model browsing. Use MPS format to capture full model detail.
Minimize
  z
Subject To
 allocateEach[1]: x[1,1] + x[2,1] + x[3,1] + x[4,1] = 1
 allocateEach[2]: x[1,2] + x[2,2] + x[3,2] + x[4,2] = 1
 allocateEach[3]: x[1,3] + x[2,3] + x[3,3] + x[4,3] = 1
 allocateEach[4]: x[1,4] + x[2,4] + x[3,4] + x[4,4] = 1
 allocateEach[5]: x[1,5] + x[2,5] + x[3,5] + x[4,5] = 1
 allocateAllCash: cashProportion[1] + cashProportion[2] + cashProportion[3]
   + cashProportion[4] = 1
 findWorstP[1,2]: z + 0.1300728407908429 cashProportion[1]
   - 0.1300728407908429 cashProportion[2] + 0.0463059313215401 x[1,1]
   + 0.3961585154353105 x[1,2] + 0.2048213666319806 x[1,3]
   + 0.1418227540756157 x[1,4] + 0.0808185917447104 x[1,5]
   - 0.0463059313215401 x[2,1] - 0.3961585154353105 x[2,2]
   - 0.2048213666319806 x[2,3] - 0.1418227540756157 x[2,4]
   - 0.0808185917447104 x[2,5] >= 0
 findWorstP[1,3]: z + 0.1300728407908429 cashProportion[1]
   - 0.1300728407908429 cashProportion[3] + 0.0463059313215401 x[1,1]
   + 0.3961585154353105 x[1,2] + 0.2048213666319806 x[1,3]
   + 0.1418227540756157 x[1,4] + 0.0808185917447104 x[1,5]
   - 0.0463059313215401 x[3,1] - 0.3961585154353105 x[3,2]
   - 0.2048213666319806 x[3,3] - 0.1418227540756157 x[3,4]
   - 0.0808185917447104 x[3,5] >= 0
 findWorstP[1,4]: z + 0.1300728407908429 cashProportion[1]
   - 0.1300728407908429 cashProportion[4] + 0.0463059313215401 x[1,1]
   + 0.3961585154353105 x[1,2] + 0.2048213666319806 x[1,3]
   + 0.1418227540756157 x[1,4] + 0.0808185917447104 x[1,5]
   - 0.0463059313215401 x[4,1] - 0.3961585154353105 x[4,2]
   - 0.2048213666319806 x[4,3] - 0.1418227540756157 x[4,4]
   - 0.0808185917447104 x[4,5] >= 0
 findWorstP[2,1]: z - 0.1076040172166428 cashProportion[1]
   + 0.1076040172166428 cashProportion[2] - 0.3472022955523673 x[1,1]
   - 0.0371233859397418 x[1,2] - 0.1860114777618364 x[1,3]
   - 0.0968077474892396 x[1,4] - 0.2252510760401722 x[1,5]
   + 0.3472022955523673 x[2,1] + 0.0371233859397418 x[2,2]
   + 0.1860114777618364 x[2,3] + 0.0968077474892396 x[2,4]
   + 0.2252510760401722 x[2,5] >= 0
 findWorstP[2,3]: z + 0.1076040172166428 cashProportion[2]
   - 0.1076040172166428 cashProportion[3] + 0.3472022955523673 x[2,1]
   + 0.0371233859397418 x[2,2] + 0.1860114777618364 x[2,3]
   + 0.0968077474892396 x[2,4] + 0.2252510760401722 x[2,5]
   - 0.3472022955523673 x[3,1] - 0.0371233859397418 x[3,2]
   - 0.1860114777618364 x[3,3] - 0.0968077474892396 x[3,4]
   - 0.2252510760401722 x[3,5] >= 0
 findWorstP[2,4]: z + 0.1076040172166428 cashProportion[2]
   - 0.1076040172166428 cashProportion[4] + 0.3472022955523673 x[2,1]
   + 0.0371233859397418 x[2,2] + 0.1860114777618364 x[2,3]
   + 0.0968077474892396 x[2,4] + 0.2252510760401722 x[2,5]
   - 0.3472022955523673 x[4,1] - 0.0371233859397418 x[4,2]
   - 0.1860114777618364 x[4,3] - 0.0968077474892396 x[4,4]
   - 0.2252510760401722 x[4,5] >= 0
 findWorstP[3,1]: z - 0.1107501476668636 cashProportion[1]
   + 0.1107501476668636 cashProportion[3] - 0.0304562906083875 x[1,1]
   - 0.1695584760779681 x[1,2] - 0.2426166568222091 x[1,3]
   - 0.2348641464855287 x[1,4] - 0.2117542823390431 x[1,5]
   + 0.0304562906083875 x[3,1] + 0.1695584760779681 x[3,2]
   + 0.2426166568222091 x[3,3] + 0.2348641464855287 x[3,4]
   + 0.2117542823390431 x[3,5] >= 0
 findWorstP[3,2]: z - 0.1107501476668636 cashProportion[2]
   + 0.1107501476668636 cashProportion[3] - 0.0304562906083875 x[2,1]
   - 0.1695584760779681 x[2,2] - 0.2426166568222091 x[2,3]
   - 0.2348641464855287 x[2,4] - 0.2117542823390431 x[2,5]
   + 0.0304562906083875 x[3,1] + 0.1695584760779681 x[3,2]
   + 0.2426166568222091 x[3,3] + 0.2348641464855287 x[3,4]
   + 0.2117542823390431 x[3,5] >= 0
 findWorstP[3,4]: z + 0.1107501476668636 cashProportion[3]
   - 0.1107501476668636 cashProportion[4] + 0.0304562906083875 x[3,1]
   + 0.1695584760779681 x[3,2] + 0.2426166568222091 x[3,3]
   + 0.2348641464855287 x[3,4] + 0.2117542823390431 x[3,5]
   - 0.0304562906083875 x[4,1] - 0.1695584760779681 x[4,2]
   - 0.2426166568222091 x[4,3] - 0.2348641464855287 x[4,4]
   - 0.2117542823390431 x[4,5] >= 0
 findWorstP[4,1]: z - 0.1024170421958214 cashProportion[1]
   + 0.1024170421958214 cashProportion[4] - 0.00761300013655606 x[1,1]
   - 0.1264850471118394 x[1,2] - 0.2753311484364332 x[1,3]
   - 0.24313805817288 x[1,4] - 0.24501570394647 x[1,5]
   + 0.00761300013655606 x[4,1] + 0.1264850471118394 x[4,2]
   + 0.2753311484364332 x[4,3] + 0.24313805817288 x[4,4]
   + 0.24501570394647 x[4,5] >= 0
 findWorstP[4,2]: z - 0.1024170421958214 cashProportion[2]
   + 0.1024170421958214 cashProportion[4] - 0.00761300013655606 x[2,1]
   - 0.1264850471118394 x[2,2] - 0.2753311484364332 x[2,3]
   - 0.24313805817288 x[2,4] - 0.24501570394647 x[2,5]
   + 0.00761300013655606 x[4,1] + 0.1264850471118394 x[4,2]
   + 0.2753311484364332 x[4,3] + 0.24313805817288 x[4,4]
   + 0.24501570394647 x[4,5] >= 0
 findWorstP[4,3]: z - 0.1024170421958214 cashProportion[3]
   + 0.1024170421958214 cashProportion[4] - 0.00761300013655606 x[3,1]
   - 0.1264850471118394 x[3,2] - 0.2753311484364332 x[3,3]
   - 0.24313805817288 x[3,4] - 0.24501570394647 x[3,5]
   + 0.00761300013655606 x[4,1] + 0.1264850471118394 x[4,2]
   + 0.2753311484364332 x[4,3] + 0.24313805817288 x[4,4]
   + 0.24501570394647 x[4,5] >= 0
Bounds
 z <= 1
 -infinity <= cashProportion[1] <= 1
 -infinity <= cashProportion[2] <= 1
 -infinity <= cashProportion[3] <= 1
 -infinity <= cashProportion[4] <= 1
Binaries
 x[1,1] x[1,2] x[1,3] x[1,4] x[1,5] x[2,1] x[2,2] x[2,3] x[2,4] x[2,5]
 x[3,1] x[3,2] x[3,3] x[3,4] x[3,5] x[4,1] x[4,2] x[4,3] x[4,4] x[4,5]
End
