data/mps_files/pEFS/65_5.mps
NAME foo
ROWS
 N  OBJ
 E  allocateEach[1]
 E  allocateEach[2]
 E  allocateEach[3]
 E  allocateEach[4]
 E  allocateEach[5]
 E  allocateAllCash
 G  findWorstP[1,2]
 G  findWorstP[1,3]
 G  findWorstP[1,4]
 G  findWorstP[2,1]
 G  findWorstP[2,3]
 G  findWorstP[2,4]
 G  findWorstP[3,1]
 G  findWorstP[3,2]
 G  findWorstP[3,4]
 G  findWorstP[4,1]
 G  findWorstP[4,2]
 G  findWorstP[4,3]
COLUMNS
    z         OBJ       1
    z         findWorstP[1,2]  1
    z         findWorstP[1,3]  1
    z         findWorstP[1,4]  1
    z         findWorstP[2,1]  1
    z         findWorstP[2,3]  1
    z         findWorstP[2,4]  1
    z         findWorstP[3,1]  1
    z         findWorstP[3,2]  1
    z         findWorstP[3,4]  1
    z         findWorstP[4,1]  1
    z         findWorstP[4,2]  1
    z         findWorstP[4,3]  1
    cashProportion[1]  allocateAllCash  1
    cashProportion[1]  findWorstP[1,2]  1.3007284079084289e-01
    cashProportion[1]  findWorstP[1,3]  1.3007284079084289e-01
    cashProportion[1]  findWorstP[1,4]  1.3007284079084289e-01
    cashProportion[1]  findWorstP[2,1]  -1.0760401721664276e-01
    cashProportion[1]  findWorstP[3,1]  -1.1075014766686356e-01
    cashProportion[1]  findWorstP[4,1]  -1.0241704219582139e-01
    cashProportion[2]  allocateAllCash  1
    cashProportion[2]  findWorstP[1,2]  -1.3007284079084289e-01
    cashProportion[2]  findWorstP[2,1]  1.0760401721664276e-01
    cashProportion[2]  findWorstP[2,3]  1.0760401721664276e-01
    cashProportion[2]  findWorstP[2,4]  1.0760401721664276e-01
    cashProportion[2]  findWorstP[3,2]  -1.1075014766686356e-01
    cashProportion[2]  findWorstP[4,2]  -1.0241704219582139e-01
    cashProportion[3]  allocateAllCash  1
    cashProportion[3]  findWorstP[1,3]  -1.3007284079084289e-01
    cashProportion[3]  findWorstP[2,3]  -1.0760401721664276e-01
    cashProportion[3]  findWorstP[3,1]  1.1075014766686356e-01
    cashProportion[3]  findWorstP[3,2]  1.1075014766686356e-01
    cashProportion[3]  findWorstP[3,4]  1.1075014766686356e-01
    cashProportion[3]  findWorstP[4,3]  -1.0241704219582139e-01
    cashProportion[4]  allocateAllCash  1
    cashProportion[4]  findWorstP[1,4]  -1.3007284079084289e-01
    cashProportion[4]  findWorstP[2,4]  -1.0760401721664276e-01
    cashProportion[4]  findWorstP[3,4]  -1.1075014766686356e-01
    cashProportion[4]  findWorstP[4,1]  1.0241704219582139e-01
    cashProportion[4]  findWorstP[4,2]  1.0241704219582139e-01
    cashProportion[4]  findWorstP[4,3]  1.0241704219582139e-01
    MARKER    'MARKER'                 'INTORG'
    x[1,1]    allocateEach[1]  1
    x[1,1]    findWorstP[1,2]  4.6305931321540074e-02
    x[1,1]    findWorstP[1,3]  4.6305931321540074e-02
    x[1,1]    findWorstP[1,4]  4.6305931321540074e-02
    x[1,1]    findWorstP[2,1]  -3.4720229555236731e-01
    x[1,1]    findWorstP[3,1]  -3.0456290608387480e-02
    x[1,1]    findWorstP[4,1]  -7.6130001365560572e-03
    x[1,2]    allocateEach[2]  1
    x[1,2]    findWorstP[1,2]  3.9615851543531050e-01
    x[1,2]    findWorstP[1,3]  3.9615851543531050e-01
    x[1,2]    findWorstP[1,4]  3.9615851543531050e-01
    x[1,2]    findWorstP[2,1]  -3.7123385939741751e-02
    x[1,2]    findWorstP[3,1]  -1.6955847607796812e-01
    x[1,2]    findWorstP[4,1]  -1.2648504711183942e-01
    x[1,3]    allocateEach[3]  1
    x[1,3]    findWorstP[1,2]  2.0482136663198061e-01
    x[1,3]    findWorstP[1,3]  2.0482136663198061e-01
    x[1,3]    findWorstP[1,4]  2.0482136663198061e-01
    x[1,3]    findWorstP[2,1]  -1.8601147776183644e-01
    x[1,3]    findWorstP[3,1]  -2.4261665682220912e-01
    x[1,3]    findWorstP[4,1]  -2.7533114843643319e-01
    x[1,4]    allocateEach[4]  1
    x[1,4]    findWorstP[1,2]  1.4182275407561570e-01
    x[1,4]    findWorstP[1,3]  1.4182275407561570e-01
    x[1,4]    findWorstP[1,4]  1.4182275407561570e-01
    x[1,4]    findWorstP[2,1]  -9.6807747489239593e-02
    x[1,4]    findWorstP[3,1]  -2.3486414648552867e-01
    x[1,4]    findWorstP[4,1]  -0.24313805817288
    x[1,5]    allocateEach[5]  1
    x[1,5]    findWorstP[1,2]  8.0818591744710386e-02
    x[1,5]    findWorstP[1,3]  8.0818591744710386e-02
    x[1,5]    findWorstP[1,4]  8.0818591744710386e-02
    x[1,5]    findWorstP[2,1]  -2.2525107604017219e-01
    x[1,5]    findWorstP[3,1]  -2.1175428233904314e-01
    x[1,5]    findWorstP[4,1]  -2.4501570394647004e-01
    x[2,1]    allocateEach[1]  1
    x[2,1]    findWorstP[1,2]  -4.6305931321540074e-02
    x[2,1]    findWorstP[2,1]  3.4720229555236731e-01
    x[2,1]    findWorstP[2,3]  3.4720229555236731e-01
    x[2,1]    findWorstP[2,4]  3.4720229555236731e-01
    x[2,1]    findWorstP[3,2]  -3.0456290608387480e-02
    x[2,1]    findWorstP[4,2]  -7.6130001365560572e-03
    x[2,2]    allocateEach[2]  1
    x[2,2]    findWorstP[1,2]  -3.9615851543531050e-01
    x[2,2]    findWorstP[2,1]  3.7123385939741751e-02
    x[2,2]    findWorstP[2,3]  3.7123385939741751e-02
    x[2,2]    findWorstP[2,4]  3.7123385939741751e-02
    x[2,2]    findWorstP[3,2]  -1.6955847607796812e-01
    x[2,2]    findWorstP[4,2]  -1.2648504711183942e-01
    x[2,3]    allocateEach[3]  1
    x[2,3]    findWorstP[1,2]  -2.0482136663198061e-01
    x[2,3]    findWorstP[2,1]  1.8601147776183644e-01
    x[2,3]    findWorstP[2,3]  1.8601147776183644e-01
    x[2,3]    findWorstP[2,4]  1.8601147776183644e-01
    x[2,3]    findWorstP[3,2]  -2.4261665682220912e-01
    x[2,3]    findWorstP[4,2]  -2.7533114843643319e-01
    x[2,4]    allocateEach[4]  1
    x[2,4]    findWorstP[1,2]  -1.4182275407561570e-01
    x[2,4]    findWorstP[2,1]  9.6807747489239593e-02
    x[2,4]    findWorstP[2,3]  9.6807747489239593e-02
    x[2,4]    findWorstP[2,4]  9.6807747489239593e-02
    x[2,4]    findWorstP[3,2]  -2.3486414648552867e-01
    x[2,4]    findWorstP[4,2]  -0.24313805817288
    x[2,5]    allocateEach[5]  1
    x[2,5]    findWorstP[1,2]  -8.0818591744710386e-02
    x[2,5]    findWorstP[2,1]  2.2525107604017219e-01
    x[2,5]    findWorstP[2,3]  2.2525107604017219e-01
    x[2,5]    findWorstP[2,4]  2.2525107604017219e-01
    x[2,5]    findWorstP[3,2]  -2.1175428233904314e-01
    x[2,5]    findWorstP[4,2]  -2.4501570394647004e-01
    x[3,1]    allocateEach[1]  1
    x[3,1]    findWorstP[1,3]  -4.6305931321540074e-02
    x[3,1]    findWorstP[2,3]  -3.4720229555236731e-01
    x[3,1]    findWorstP[3,1]  3.0456290608387480e-02
    x[3,1]    findWorstP[3,2]  3.0456290608387480e-02
    x[3,1]    findWorstP[3,4]  3.0456290608387480e-02
    x[3,1]    findWorstP[4,3]  -7.6130001365560572e-03
    x[3,2]    allocateEach[2]  1
    x[3,2]    findWorstP[1,3]  -3.9615851543531050e-01
    x[3,2]    findWorstP[2,3]  -3.7123385939741751e-02
    x[3,2]    findWorstP[3,1]  1.6955847607796812e-01
    x[3,2]    findWorstP[3,2]  1.6955847607796812e-01
    x[3,2]    findWorstP[3,4]  1.6955847607796812e-01
    x[3,2]    findWorstP[4,3]  -1.2648504711183942e-01
    x[3,3]    allocateEach[3]  1
    x[3,3]    findWorstP[1,3]  -2.0482136663198061e-01
    x[3,3]    findWorstP[2,3]  -1.8601147776183644e-01
    x[3,3]    findWorstP[3,1]  2.4261665682220912e-01
    x[3,3]    findWorstP[3,2]  2.4261665682220912e-01
    x[3,3]    findWorstP[3,4]  2.4261665682220912e-01
    x[3,3]    findWorstP[4,3]  -2.7533114843643319e-01
    x[3,4]    allocateEach[4]  1
    x[3,4]    findWorstP[1,3]  -1.4182275407561570e-01
    x[3,4]    findWorstP[2,3]  -9.6807747489239593e-02
    x[3,4]    findWorstP[3,1]  2.3486414648552867e-01
    x[3,4]    findWorstP[3,2]  2.3486414648552867e-01
    x[3,4]    findWorstP[3,4]  2.3486414648552867e-01
    x[3,4]    findWorstP[4,3]  -0.24313805817288
    x[3,5]    allocateEach[5]  1
    x[3,5]    findWorstP[1,3]  -8.0818591744710386e-02
    x[3,5]    findWorstP[2,3]  -2.2525107604017219e-01
    x[3,5]    findWorstP[3,1]  2.1175428233904314e-01
    x[3,5]    findWorstP[3,2]  2.1175428233904314e-01
    x[3,5]    findWorstP[3,4]  2.1175428233904314e-01
    x[3,5]    findWorstP[4,3]  -2.4501570394647004e-01
    x[4,1]    allocateEach[1]  1
    x[4,1]    findWorstP[1,4]  -4.6305931321540074e-02
    x[4,1]    findWorstP[2,4]  -3.4720229555236731e-01
    x[4,1]    findWorstP[3,4]  -3.0456290608387480e-02
    x[4,1]    findWorstP[4,1]  7.6130001365560572e-03
    x[4,1]    findWorstP[4,2]  7.6130001365560572e-03
    x[4,1]    findWorstP[4,3]  7.6130001365560572e-03
    x[4,2]    allocateEach[2]  1
    x[4,2]    findWorstP[1,4]  -3.9615851543531050e-01
    x[4,2]    findWorstP[2,4]  -3.7123385939741751e-02
    x[4,2]    findWorstP[3,4]  -1.6955847607796812e-01
    x[4,2]    findWorstP[4,1]  1.2648504711183942e-01
    x[4,2]    findWorstP[4,2]  1.2648504711183942e-01
    x[4,2]    findWorstP[4,3]  1.2648504711183942e-01
    x[4,3]    allocateEach[3]  1
    x[4,3]    findWorstP[1,4]  -2.0482136663198061e-01
    x[4,3]    findWorstP[2,4]  -1.8601147776183644e-01
    x[4,3]    findWorstP[3,4]  -2.4261665682220912e-01
    x[4,3]    findWorstP[4,1]  2.7533114843643319e-01
    x[4,3]    findWorstP[4,2]  2.7533114843643319e-01
    x[4,3]    findWorstP[4,3]  2.7533114843643319e-01
    x[4,4]    allocateEach[4]  1
    x[4,4]    findWorstP[1,4]  -1.4182275407561570e-01
    x[4,4]    findWorstP[2,4]  -9.6807747489239593e-02
    x[4,4]    findWorstP[3,4]  -2.3486414648552867e-01
    x[4,4]    findWorstP[4,1]  0.24313805817288
    x[4,4]    findWorstP[4,2]  0.24313805817288
    x[4,4]    findWorstP[4,3]  0.24313805817288
    x[4,5]    allocateEach[5]  1
    x[4,5]    findWorstP[1,4]  -8.0818591744710386e-02
    x[4,5]    findWorstP[2,4]  -2.2525107604017219e-01
    x[4,5]    findWorstP[3,4]  -2.1175428233904314e-01
    x[4,5]    findWorstP[4,1]  2.4501570394647004e-01
    x[4,5]    findWorstP[4,2]  2.4501570394647004e-01
    x[4,5]    findWorstP[4,3]  2.4501570394647004e-01
    MARKER    'MARKER'                 'INTEND'
RHS
    RHS1      allocateEach[1]  1
    RHS1      allocateEach[2]  1
    RHS1      allocateEach[3]  1
    RHS1      allocateEach[4]  1
    RHS1      allocateEach[5]  1
    RHS1      allocateAllCash  1
BOUNDS
 UP BND1      z         1
 MI BND1      cashProportion[1]
 UP BND1      cashProportion[1]  1
 MI BND1      cashProportion[2]
 UP BND1      cashProportion[2]  1
 MI BND1      cashProportion[3]
 UP BND1      cashProportion[3]  1
 MI BND1      cashProportion[4]
 UP BND1      cashProportion[4]  1
 BV BND1      x[1,1]  
 BV BND1      x[1,2]  
 BV BND1      x[1,3]  
 BV BND1      x[1,4]  
 BV BND1      x[1,5]  
 BV BND1      x[2,1]  
 BV BND1      x[2,2]  
 BV BND1      x[2,3]  
 BV BND1      x[2,4]  
 BV BND1      x[2,5]  
 BV BND1      x[3,1]  
 BV BND1      x[3,2]  
 BV BND1      x[3,3]  
 BV BND1      x[3,4]  
 BV BND1      x[3,5]  
 BV BND1      x[4,1]  
 BV BND1      x[4,2]  
 BV BND1      x[4,3]  
 BV BND1      x[4,4]  
 BV BND1      x[4,5]  
ENDATA
